Linux optc-09-09 4.15.0-58-generic #64-Ubuntu SMP Tue Aug 6 11:12:41 UTC 2019 x86_64 x86_64 x86_64 GNU/Linux

top - 22:03:29 up 1 day, 12:04,  0 users,  load average: 0,61, 0,90, 0,97
Tasks: 291 gesamt,   1 laufend, 149 schlafend,   0 gestoppt,   0 Zombie
%CPU(s):  7,4 be,  0,4 sy,  0,0 ni, 92,2 un,  0,0 wa,  0,0 hi,  0,0 si,  0,0 st
KiB Spch : 97514992 gesamt, 95352640 frei,   649556 belegt,  1512796 Puff/Cache
KiB Swap:  8388604 gesamt,  8388604 frei,        0 belegt. 96124000 verfü Spch 

  PID USER      PR  NI    VIRT    RES    SHR S  %CPU %MEM     ZEIT+ BEFEHL
12893 bzfhende  20   0   52664   4168   3424 R   6,2  0,0   0:00.01 top
    1 root      20   0  233856   9376   6656 S   0,0  0,0   0:11.45 systemd
    2 root      20   0       0      0      0 S   0,0  0,0   0:00.14 kthreadd
    4 root       0 -20       0      0      0 I   0,0  0,0   0:00.00 kworker/0:+
    6 root      20   0       0      0      0 I   0,0  0,0   0:00.00 kworker/u3+
    7 root       0 -20       0      0      0 I   0,0  0,0   0:00.00 mm_percpu_+
    8 root      20   0       0      0      0 S   0,0  0,0   0:00.03 ksoftirqd/0
    9 root      20   0       0      0      0 I   0,0  0,0   0:14.07 rcu_sched

hard time limit: 04:10:00
hard mem limit: 55100

SLURM jobID: 2182617

@01 /nfs/optimi/kombadon/IP/coral/neos-1354092.mps.gz ===========
-----------------------------
Do 22. Aug 22:03:29 CEST 2019
-----------------------------
@03 1566504209
@05 7200
SCIP version 6.0.0 [precision: 8 byte] [memory: block] [mode: optimized] [LP solver: CPLEX 12.8.0.0] [GitHash: 41ab6e0014]
Copyright (C) 2002-2018 Konrad-Zuse-Zentrum fuer Informationstechnik Berlin (ZIB)

External codes: 
  Readline 7.0         GNU library for command line editing (gnu.org/s/readline)
  CPLEX 12.8.0.0       Linear Programming Solver developed by IBM (www.cplex.com)
  CppAD 20180000.0     Algorithmic Differentiation of C++ algorithms developed by B. Bell (www.coin-or.org/CppAD)
  ZLIB 1.2.11          General purpose compression library by J. Gailly and M. Adler (zlib.net)
  GMP 6.1.2            GNU Multiple Precision Arithmetic Library developed by T. Granlund (gmplib.org)
  bliss 0.73p          Computing Graph Automorphism Groups by T. Junttila and P. Kaski (http://www.tcs.hut.fi/Software/bliss/)

user parameter file <scip.set> not found - using default parameters

SCIP> 
SCIP> set load /home/optimi/bzfhende/opti/scip-opti/check/../settings/enable_treeeprofile.set
loaded parameter file </home/optimi/bzfhende/opti/scip-opti/check/../settings/enable_treeprofile.set>
SCIP> set limits time 7200
limits/time = 7200
SCIP> set limits nodes 2100000000
limits/nodes = 2100000000
SCIP> set limits memory 50000
limits/memory = 50000
SCIP> set lp advanced threads 1
lp/threads = 1
SCIP> set timing clocktype 1
timing/clocktype = 1
SCIP> set display freq 10000
display/freq = 10000
SCIP> set memory savefac 1.0
memory/savefac = 1
SCIP> set save /home/optimi/bzfhende/opti/scip-opti/check/treesize.estimation.jouurnal.3/bzfhende.MMMc.153_neos-1354092.scip.M640.enable_treeprofile.set
saved parameter file </home/optimi/bzfhende/opti/scip-opti/check/treesize.estimation.journal.3/bzfhende.MMMc.153_neos-1354092.scip.M640.enable_treeprofile.set>
SCIP> read /nfs/optimi/kombadon/IP/coral/neos-1354092.mps.gz

read problem </nfs/optimi/kombadon/IP/coral/neos-1354092.mps.gz>
============

original problem has 13702 variables (13282 bin, 420 int, 0 impl, 0 cont) and 3135 constraints
SCIP> display parameters

number of parameters = 2448
non-default parameter settings:
display/freq = 10000
limits/time = 7200
limits/nodes = 2100000000
limits/memory = 50000
lp/threads = 1
memory/savefac = 1
presolving/maxrestarts = 0
estimates/profile/enabled = TRUE
estimates/profile/maxdepthfactor = 10
estimates/profile/freq = 0

SCIP> optimize

Activating tree profile data collection
presolving:
(round 1, fast)       7 del vars, 0 del conss, 0 add conss, 777 chg bounds, 0 chg sides, 0 chg coeffs, 0 upgd conss, 0 impls, 1889 clqs
(round 2, exhaustive) 7 del vars, 0 del conss, 0 add conss, 777 chg bounds, 0 chg sides, 0 chg coeffs, 2715 upgd conss, 0 impls, 1889 clqs
   (0.4s) probing: 51/13289 (0.4%) - 0 fixings, 0 aggregations, 0 implications, 0 bound changes
   (0.4s) probing aborted: 50/50 successive totally useless probings
presolving (3 rounds: 3 fast, 2 medium, 2 exhaustive):
 7 deleted vars, 0 deleted constraints, 0 added constraints, 777 tightened bounds, 0 added holes, 0 changed sides, 0 changed coefficients
 826 implications, 1889 cliques
presolved problem has 13702 variables (13289 bin, 413 int, 0 impl, 0 cont) and 3135 constraints
    826 constraints of type <varbound>
   1889 constraints of type <setppc>
    420 constraints of type <linear>
transformed objective value is always integral (scale: 1)
Presolving Time: 0.41

 time | node  | left  |LP iter|LP it/n| mem |mdpt |frac |vars |cons |cols |rows |cuts |confs|strbr|  dualbound   | primalbound  |  gap   
  2.1s|     1 |     0 |  4925 |     - | 183M|   0 | 918 |  13k|3135 |  13k|3135 |   0 |   0 |   0 | 1.328571e+01 |      --      |    Inf 
 11.4s|     1 |     0 | 31600 |     - | 199M|   0 | 748 |  13k|3135 |  13k|3016 | 133 |   0 |   0 | 2.485714e+01 |      --      |    Inf 
 12.8s|     1 |     0 | 33097 |     - | 199M|   0 | 662 |  13k|3135 |  13k|2855 | 180 |   0 |   0 | 2.914286e+01 |      --      |    Inf 
SCIP nodes: 1 Estimation: -1
 24.1s|     1 |     2 | 33097 |     - | 202M|   0 | 662 |  13k|2813 |  13k|2855 | 180 |   0 |  43 | 2.914286e+01 |      --      |    Inf 
   (24.1s) symmetry computation started: requiring (bin +, int -, cont -), (fixed: bin -, int +, cont -)
   (24.1s) symmetry computation finished: 44 generators found (max: 1500, log10 of symmetry group size: 29.4)
   (24.1s) turning off presolver <domcol> for remaining computations in order to avoid conflicts
SCIP nodes: 2 Estimation: -1
SCIP nodes: 4 Estimation: -1
SCIP nodes: 8 Estimation: -1
SCIP nodes: 16 Estimation: -1
SCIP nodes: 32 Estimation: -1
SCIP nodes: 64 Estimation: -1
SCIP nodes: 128 Estimation: -1
SCIP nodes: 256 Estimation: -1
SCIP nodes: 512 Estimation: -1
SCIP nodes: 1024 Estimation: 4.33812e+12
SCIP nodes: 2048 Estimation: 1.46814e+13
SCIP nodes: 4096 Estimation: 2.20581e+13
SCIP nodes: 8192 Estimation: 16716.8
 1725s| 10000 | 10001 |  2910k| 287.8 | 296M|  91 | 431 |  13k|3397 |  13k|2855 | 182 |1258 |2650 | 4.328571e+01 |      --      |    Inf 
SCIP nodes: 16384 Estimation: 36723.4
 3294s| 20000 | 20001 |  5649k| 280.8 | 340M|  91 | 415 |  13k|3582 |  13k|2855 | 182 |2279 |4744 | 4.428571e+01 |      --      |    Inf 
 4794s| 30000 | 30001 |  8203k| 272.4 | 384M|  91 | 425 |  13k|3765 |  13k|2855 | 182 |3287 |6691 | 4.445000e+01 |      --      |    Inf 
SCIP nodes: 32768 Estimation: 73082.6
 6316s| 40000 | 40001 | 10769k| 268.4 | 426M|  91 | 433 |  13k|3787 |  13k|2855 | 184 |4233 |8535 | 4.514286e+01 |      --      |    Inf 

SCIP Status        : solving was interrupted [time limit reached]
Solving Time (sec) : 7200.00
Solving Nodes      : 46090
Primal Bound       : +1.00000000000000e+20 (0 solutions)
Dual Bound         : +4.51666666666666e+01
Gap                : infinite

SCIP> display statistics

SCIP Status        : solving was interrupted [time limit reached]
Total Time         :    7200.07
  solving          :    7200.00
  presolving       :       0.41 (included in solving)
  reading          :       0.07
  copying          :       0.19 (7 #copies) (minimal 0.02, maximal 0.03, average 0.03)
Original Problem   :
  Problem name     : _MPS_
  Variables        : 13702 (13282 binary, 420 integer, 0 implicit integer, 0 continuous)
  Constraints      : 3135 initial, 3135 maximal
  Objective        : minimize, 59 non-zeros (abs.min = 1, abs.max = 1)
Presolved Problem  :
  Problem name     : t__MPS_
  Variables        : 13702 (13289 binary, 413 integer, 0 implicit integer, 0 continuous)
  Constraints      : 3135 initial, 3853 maximal
  Objective        : minimize, 59 non-zeros (abs.min = 1, abs.max = 1)
Presolvers         :   ExecTime  SetupTime  Calls  FixedVars   AggrVars   ChgTypes  ChgBounds   AddHoles    DelCons    AddCons   ChgSides   ChgCoefs
  boundshift       :       0.00       0.00      0          0          0          0          0          0          0          0          0          0
  convertinttobin  :       0.00       0.00      0          0          0          0          0          0          0          0          0          0
  domcol           :       0.02       0.00      1          0          0          0          0          0          0          0          0          0
  dualagg          :       0.00       0.00      0          0          0          0          0          0          0          0          0          0
  dualcomp         :       0.00       0.00      0          0          0          0          0          0          0          0          0          0
  dualinfer        :       0.00       0.00      0          0          0          0          0          0          0          0          0          0
  gateextraction   :       0.00       0.00      0          0          0          0          0          0          0          0          0          0
  implics          :       0.00       0.00      2          0          0          0          0          0          0          0          0          0
  inttobinary      :       0.00       0.00      3          0          7          7          0          0          0          0          0          0
  qpkktref         :       0.00       0.00      0          0          0          0          0          0          0          0          0          0
  redvub           :       0.00       0.00      0          0          0          0          0          0          0          0          0          0
  sparsify         :       0.27       0.00      1          0          0          0          0          0          0          0          0          0
  stuffing         :       0.00       0.00      0          0          0          0          0          0          0          0          0          0
  symbreak         :       0.00       0.00      0          0          0          0          0          0          0          0          0          0
  symmetry         :       0.00       0.00      0          0          0          0          0          0          0          0          0          0
  trivial          :       0.00       0.00      3          0          0          0          0          0          0          0          0          0
  tworowbnd        :       0.00       0.00      0          0          0          0          0          0          0          0          0          0
  dualfix          :       0.00       0.00      3          0          0          0          0          0          0          0          0          0
  genvbounds       :       0.00       0.00      0          0          0          0          0          0          0          0          0          0
  orbitalfixing    :       0.00       0.00      0          0          0          0          0          0          0          0          0          0
  probing          :       0.04       0.00      1          0          0          0          0          0          0          0          0          0
  pseudoobj        :       0.00       0.00      0          0          0          0          0          0          0          0          0          0
  vbounds          :       0.00       0.00      1          0          0          0          0          0          0          0          0          0
  varbound         :       0.00       0.00      2          0          0          0          0          0          0          0          0          0
  setppc           :       0.00       0.00      3          0          0          0          0          0          0          0          0          0
  linear           :       0.05       0.02      5          0          0          0        777          0          0          0          0          0
  bounddisjunction :       0.00       0.00      0          0          0          0          0          0          0          0          0          0
  benders          :       0.00       0.00      0          0          0          0          0          0          0          0          0          0
  components       :       0.01       0.00      1          0          0          0          0          0          0          0          0          0
  root node        :          -          -      -         46          -          -         46          -          -          -          -          -
Constraints        :     Number  MaxNumber  #Separate #Propagate    #EnfoLP    #EnfoRelax  #EnfoPS    #Check   #ResProp    Cutoffs    DomReds       Cuts    Applied      Conss   Children
  benderslp        :          0          0          0          0      46098          0          0       2424          0          0          0          0          0          0          0
  integral         :          0          0          0          0      46098          0          0       2424          0          0          1          0          0          9      92180
  varbound         :        826        826          3    1816549          0          0          0       2420         57          0       3177          0          0          0          0
  setppc           :       1889+      1892          3    1816549          0          0          0       2184        500         89      34006          0          0          0          0
  linear           :        420+       520          3    1816460          0          0          0          0       5453        870      20268          0          0          0          0
  bounddisjunction :          0+       985          0     431941          0          0          0          0       1914        337      33061          0          0          0          0
  benders          :          0          0          0          0          0          0          0          0          0          0          0          0          0          0          0
  countsols        :          0          0          0          0          0          0          0          0          0          0          0          0          0          0          0
  components       :          0          0          0          0          0          0          0          0          0          0          0          0          0          0          0
Constraint Timings :  TotalTime  SetupTime   Separate  Propagate     EnfoLP     EnfoPS     EnfoRelax   Check    ResProp    SB-Prop
  benderslp        :       0.03       0.00       0.00       0.00       0.03       0.00       0.00       0.00       0.00       0.00
  integral         :    1676.82       0.00       0.00       0.00    1676.82       0.00       0.00       0.00       0.00       0.00
  varbound         :       1.20       0.00       0.00       0.99       0.00       0.00       0.00       0.20       0.00       0.01
  setppc           :       8.57       0.00       0.00       8.19       0.00       0.00       0.00       0.05       0.00       0.33
  linear           :      15.55       0.02       1.79      13.55       0.00       0.00       0.00       0.00       0.01       0.18
  bounddisjunction :       1.77       0.00       0.00       1.76       0.00       0.00       0.00       0.00       0.00       0.01
  benders          :       0.00       0.00       0.00       0.00       0.00       0.00       0.00       0.00       0.00       0.00
  countsols        :       0.00       0.00       0.00       0.00       0.00       0.00       0.00       0.00       0.00       0.00
  components       :       0.85       0.00       0.00       0.83       0.00       0.00       0.00       0.00       0.00       0.02
Propagators        : #Propagate   #ResProp    Cutoffs    DomReds
  dualfix          :          2          0          0          0
  genvbounds       :          0          0          0          0
  nlobbt           :          0          0          0          0
  obbt             :          0          0          0          0
  orbitalfixing    :      46165          0          0          0
  probing          :          0          0          0          0
  pseudoobj        :     121320          0          0          0
  redcost          :      92205          0          0          0
  rootredcost      :          1          0          0          0
  vbounds          :    1862547          0          0          0
Propagator Timings :  TotalTime  SetupTime   Presolve  Propagate    ResProp    SB-Prop
  dualfix          :       0.00       0.00       0.00       0.00       0.00       0.00
  genvbounds       :       1.03       0.00       0.00       1.03       0.00       0.00
  nlobbt           :       0.00       0.00       0.00       0.00       0.00       0.00
  obbt             :       0.00       0.00       0.00       0.00       0.00       0.00
  orbitalfixing    :      83.66       0.00       0.00      83.63       0.00       0.03
  probing          :       0.04       0.00       0.04       0.00       0.00       0.00
  pseudoobj        :       1.10       0.00       0.00       1.08       0.00       0.02
  redcost          :      15.01       0.00       0.00      15.00       0.00       0.01
  rootredcost      :       1.29       0.00       0.00       1.28       0.00       0.01
  vbounds          :       1.12       0.00       0.00       1.10       0.00       0.02
Orbital fixing     :
  vars fixed to 0  :          0
  vars fixed to 1  :          0
Conflict Analysis  :       Time      Calls    Success    DomReds  Conflicts   Literals    Reconvs ReconvLits   Dualrays   Nonzeros   LP Iters   (pool size: [10000,10000])
  propagation      :       0.01        613        600          -        978       10.1          0        0.0          -          -          -
  infeasible LP    :       4.27       3688       3699          -       4099        5.2         10        8.9       3688        7.0          0
  bound exceed. LP :       0.00          0          0          -          0        0.0          0        0.0          0        0.0          0
  strong branching :       0.00          0          0          -          0        0.0          0        0.0          -          -          0
  pseudo solution  :       0.00          0          0          -          0        0.0          0        0.0          -          -          -
  applied globally :       0.03          -          -         11       4743        5.6          -          -       3688          -          -
  applied locally  :          -          -          -          0          0        0.0          -          -          0          -          -
Separators         :   ExecTime  SetupTime      Calls    Cutoffs    DomReds       Cuts    Applied      Conss
  cut pool         :       0.08                  3203          -          -         35          -          -    (maximal pool size: 145)
  aggregation      :       1.92       0.00        898          0          0          0          0          0
  cgmip            :       0.00       0.00          0          0          0          0          0          0
  clique           :       0.07       0.00          3          0          0          0          0          0
  closecuts        :       0.00       0.00          0          0          0          0          0          0
  cmir             :       0.00       0.00          0          0          0          0          0          0
  convexproj       :       0.00       0.00          0          0          0          0          0          0
  disjunctive      :       0.00       0.00          0          0          0          0          0          0
  eccuts           :       0.00       0.00          0          0          0          0          0          0
  flowcover        :       0.00       0.00          0          0          0          0          0          0
  gauge            :       0.00       0.00          0          0          0          0          0          0
  gomory           :      23.17       0.00        898          0          0        160        138          0
  impliedbounds    :       0.22       0.00        898          0          0          0          2          0
  intobj           :       0.00       0.00          0          0          0          0          0          0
  mcf              :       0.01       0.00          1          0          0          0          0          0
  oddcycle         :       0.00       0.00          0          0          0          0          0          0
  rapidlearning    :       0.00       0.00          0          0          0          0          0          0
  strongcg         :       0.37       0.00          8          0          0          0         19          0
  zerohalf         :      48.50       0.00        898          0          0          0          5          0
Pricers            :   ExecTime  SetupTime      Calls       Vars
  problem variables:       0.00          -          0          0
Branching Rules    :   ExecTime  SetupTime   BranchLP  BranchExt   BranchPS    Cutoffs    DomReds       Cuts      Conss   Children
  allfullstrong    :       0.00       0.00          0          0          0          0          0          0          0          0
  cloud            :       0.00       0.00          0          0          0          0          0          0          0          0
  distribution     :       0.00       0.00          0          0          0          0          0          0          0          0
  fullstrong       :       0.00       0.00          0          0          0          0          0          0          0          0
  inference        :       0.00       0.00          0          0          0          0          0          0          0          0
  leastinf         :       0.00       0.00          0          0          0          0          0          0          0          0
  lookahead        :       0.00       0.00          0          0          0          0          0          0          0          0
  mostinf          :       0.00       0.00          0          0          0          0          0          0          0          0
  multaggr         :       0.00       0.00          0          0          0          0          0          0          0          0
  nodereopt        :       0.00       0.00          0          0          0          0          0          0          0          0
  pscost           :       0.00       0.00          0          0          0          0          0          0          0          0
  random           :       0.00       0.00          0          0          0          0          0          0          0          0
  relpscost        :    1676.72       0.00      46098          0          0          0          1          0         10      92180
Primal Heuristics  :   ExecTime  SetupTime      Calls      Found       Best
  LP solutions     :       0.00          -          -          0          0
  relax solutions  :       0.00          -          -          0          0
  pseudo solutions :       0.00          -          -          0          0
  strong branching :       0.17          -          -          0          0
  actconsdiving    :       0.00       0.00          0          0          0
  alns             :      10.20       0.00          6          0          0
  bound            :       0.00       0.00          0          0          0
  clique           :       0.07       0.00          1          0          0
  coefdiving       :     186.47       0.00        966          0          0
  completesol      :       0.00       0.00          0          0          0
  conflictdiving   :       0.00       0.00          0          0          0
  crossover        :       0.05       0.00          0          0          0
  dins             :       0.00       0.00          0          0          0
  distributiondivin:     183.42       0.00        178          0          0
  dualval          :       0.00       0.00          0          0          0
  farkasdiving     :       0.00       0.00          0          0          0
  feaspump         :      51.95       0.00         15          0          0
  fixandinfer      :       0.00       0.00          0          0          0
  fracdiving       :     183.97       0.00        846          0          0
  gins             :       0.02       0.00          0          0          0
  guideddiving     :       0.00       0.00          0          0          0
  indicator        :       0.07       0.00          0          0          0
  intdiving        :       0.00       0.00          0          0          0
  intshifting      :       0.00       0.00          0          0          0
  linesearchdiving :     182.74       0.00        837          0          0
  localbranching   :       0.00       0.00          0          0          0
  locks            :       0.04       0.00          1          0          0
  lpface           :       0.09       0.00          0          0          0
  mpec             :       0.02       0.00          0          0          0
  multistart       :       0.00       0.00          0          0          0
  mutation         :       0.00       0.00          0          0          0
  nlpdiving        :       0.00       0.00          0          0          0
  objpscostdiving  :     729.86       0.00        598          0          0
  octane           :       0.00       0.00          0          0          0
  ofins            :       0.02       0.00          0          0          0
  oneopt           :       0.07       0.00          0          0          0
  proximity        :       0.00       0.00          0          0          0
  pscostdiving     :     169.82       0.00        213          0          0
  randrounding     :       0.52       0.00       2417          0          0
  rens             :       0.53       0.00          1          0          0
  reoptsols        :       0.00       0.00          0          0          0
  repair           :       0.00       0.00          0          0          0
  rins             :       0.03       0.00          0          0          0
  rootsoldiving    :      83.89       0.00          6          0          0
  rounding         :       7.14       0.00       2989          0          0
  shiftandpropagate:       0.09       0.00          1          0          0
  shifting         :       8.00       0.00        903          0          0
  simplerounding   :       0.06       0.00      46107          0          0
  subnlp           :       0.06       0.00          0          0          0
  trivial          :       0.01       0.00          2          0          0
  trivialnegation  :       0.00       0.00          0          0          0
  trysol           :       0.07       0.00          0          0          0
  twoopt           :       0.00       0.00          0          0          0
  undercover       :       0.00       0.00          0          0          0
  vbounds          :       0.09       0.00          1          0          0
  veclendiving     :     187.21       0.00       1073          0          0
  zeroobj          :       0.00       0.00          0          0          0
  zirounding       :       0.20       0.00       1000          0          0
  other solutions  :          -          -          -          0          -
Diving Statistics  :      Calls      Nodes   LP Iters Backtracks  Conflicts   MinDepth   MaxDepth   AvgDepth  RoundSols  NLeafSols  MinSolDpt  MaxSolDpt  AvgSolDpt
  actconsdiving    :          0          -          -          -          -          -          -          -          -          -          -          -          -
  coefdiving       :        966     314638     450418        261       2165        212        552      373.4          0          -          -          -          -
  conflictdiving   :          0          -          -          -          -          -          -          -          -          -          -          -          -
  distributiondivin:        178      16097     474293         86        177         51        481      139.0          0          -          -          -          -
  farkasdiving     :          0          -          -          -          -          -          -          -          -          -          -          -          -
  fracdiving       :        846     281476     451291        155       1853        213        767      380.3          0          -          -          -          -
  guideddiving     :          0          -          -          -          -          -          -          -          -          -          -          -          -
  linesearchdiving :        837     276601     451051        173       1854        122        522      379.2          0          -          -          -          -
  pscostdiving     :        213      34054     468568          0          0         58        988      209.4          0          -          -          -          -
  veclendiving     :       1073     273419     449476        419       2681        154        533      301.6          0          -          -          -          -
Neighborhoods      :      Calls  SetupTime  SolveTime SolveNodes       Sols       Best       Exp3  EpsGreedy        UCB TgtFixRate  Opt  Inf Node Stal  Sol  Usr Othr Actv
  rens             :          6       0.32       9.82        332          0          0    0.00000   -1.00000    0.47116      0.900    0    0    0    6    0    0    0    1
  rins             :          0       0.00       0.00          0          0          0    0.00000   -1.00000    0.06498      0.900    0    0    0    0    0    0    0    1
  mutation         :          0       0.00       0.00          0          0          0    0.00000   -1.00000    0.06498      0.900    0    0    0    0    0    0    0    1
  localbranching   :          0       0.00       0.00          0          0          0    0.00000   -1.00000    0.06498      0.900    0    0    0    0    0    0    0    1
  crossover        :          0       0.00       0.00          0          0          0    0.00000   -1.00000    0.06498      0.900    0    0    0    0    0    0    0    1
  proximity        :          0       0.00       0.00          0          0          0    0.00000   -1.00000    0.06498      0.900    0    0    0    0    0    0    0    1
  zeroobjective    :          0       0.00       0.00          0          0          0    0.00000   -1.00000    0.06498      0.900    0    0    0    0    0    0    0    1
  dins             :          0       0.00       0.00          0          0          0    0.00000   -1.00000    0.06498      0.900    0    0    0    0    0    0    0    1
LP                 :       Time      Calls Iterations  Iter/call   Iter/sec  Time-0-It Calls-0-It    ItLimit
  primal LP        :       0.56          3          0       0.00       0.00       0.56          3
  dual LP          :    3287.69      46100    8872115     192.46    2698.59       0.00          1
  lex dual LP      :       0.00          0          0       0.00          -
  barrier LP       :       0.00          0          0       0.00          -       0.00          0
  resolve instable :       0.00          0          0       0.00          -
  diving/probing LP:    1636.24      11152    3285074     294.57    2007.70
  strong branching :    1652.42       9618    4568437     474.99    2764.69          -          -       1878
    (at root node) :          -         43      19905     462.91          -
  conflict analysis:       0.00          0          0       0.00          -
B&B Tree           :
  number of runs   :          1
  nodes            :      46090 (46090 internal, 0 leaves)
  feasible leaves  :          0
  infeas. leaves   :          0
  objective leaves :          0
  nodes (total)    :      46090 (46090 internal, 0 leaves)
  nodes left       :      46091
  max depth        :         91
  max depth (total):         91
  backtracks       :       4639 (10.1%)
  early backtracks :          0 (0.0%)
  nodes exc. ref.  :          0 (0.0%)
  delayed cutoffs  :          0
  repropagations   :         84 (59 domain reductions, 0 cutoffs)
  avg switch length:       4.27
  switching time   :       2.49
Root Node          :
  First LP value   : +1.32857142857128e+01
  First LP Iters   :       4925 (3788.46 Iter/sec)
  First LP Time    :       1.30
  Final Dual Bound : +2.91428571428577e+01
  Final Root Iters :      33097
  Root LP Estimate : +3.41471186799592e+01
Solution           :
  Solutions found  :          0 (0 improvements)
  Primal Bound     :          -
  Dual Bound       : +4.51666666666666e+01
  Gap              :   infinite
  Avg. Gap         :     100.00 % (720000.00 primal-dual integral)
  Tree Data        : 92181 nodes (46090 visited, 46090 inner, 0 leaves, 46091 open), progress: 0.0000
Tree Estimation    :       estim       value       trend  resolution      smooth
  wbe              :          -1           -           -           -           -
  tree profile     :      108234           -           -           -           -
  gap              :          -1     0.00000 999999999999999967336168804116691273849533185806555472917961779471295845921727862608739868455469056.00000           1 999999999999999967336168804116691273849533185806555472917961779471295845921727862608739868455469056
  progress         :          -1     0.00000 999999999999999967336168804116691273849533185806555472917961779471295845921727862608739868455469056.00000           1 999999999999999967336168804116691273849533185806555472917961779471295845921727862608739868455469056
  leaf-frequency   :          -1    -0.50000 999999999999999967336168804116691273849533185806555472917961779471295845921727862608739868455469056.00000           1 999999999999999967336168804116691273849533185806555472917961779471295845921727862608739868455469056
  ssg              :          -1     1.00000 999999999999999967336168804116691273849533185806555472917961779471295845921727862608739868455469056.00000           1 999999999999999967336168804116691273849533185806555472917961779471295845921727862608739868455469056
  open-nodes       :          -1     0.00000 999999999999999967336168804116691273849533185806555472917961779471295845921727862608739868455469056.00000           1 999999999999999967336168804116691273849533185806555472917961779471295845921727862608739868455469056

@04 1566511430
-----------------------------
Fr 23. Aug 00:03:50 CEST 2019
-----------------------------

=ready=
